TYPE : Vertex Cover
DIMENSION: 26
EDGE_DATA_SECTION:
0 1
0 6
0 9
0 13
0 23
1 5
1 7
1 8
1 18
1 19
1 24
2 9
2 15
2 17
2 18
2 20
2 21
2 24
2 25
3 4
3 5
3 12
3 14
3 15
3 17
3 19
3 20
4 5
4 8
4 13
4 15
4 18
4 19
4 25
5 11
5 14
5 19
6 12
6 13
6 16
6 18
6 21
6 22
6 24
7 15
7 17
7 19
7 22
8 23
8 24
9 20
9 23
9 24
10 13
10 16
10 19
10 21
10 22
10 24
11 12
11 15
11 16
11 18
12 24
12 25
13 19
13 21
13 25
14 15
14 17
14 23
15 18
16 21
16 22
16 23
16 24
17 18
17 19
17 22
18 20
19 21
19 23
20 21
21 24
21 25
-1
VERTEX_DEGREE:
5.0 7.0 8.0 8.0 8.0 6.0 8.0 5.0 4.0 5.0 6.0 5.0 5.0 7.0 5.0 7.0 7.0 7.0 8.0 10.0 5.0 9.0 5.0 6.0 9.0 5.0
VERTEX_COVER:
0 1 2 3 4 7 8 9 11 12 13 14 16 18 19 21 22 24
EOF
